SECTION Graph
Nodes 1491
Edges 2831
E 1 216 1
E 1 1399 3
E 1 1404 1
E 1 1409 9
E 2 216 1
E 2 1403 3
E 2 1407 1
E 2 1411 9
E 3 1409 6
E 4 1404 9
E 4 1409 1
E 5 1407 9
E 5 1411 1
E 6 7 2
E 6 783 10
E 6 830 1
E 6 848 2
E 7 790 10
E 7 853 2
E 8 902 1
E 9 810 13
E 9 842 7
E 9 874 1
E 9 888 5
E 10 829 13
E 10 881 1
E 11 517 3
E 11 549 1
E 12 605 5
E 12 813 27
E 13 217 1
E 13 586 5
E 13 623 1
E 13 672 6
E 14 217 1
E 14 592 6
E 14 654 1
E 14 685 6
E 15 685 9
E 15 744 1
E 15 755 1
E 15 756 1
E 16 595 9
E 16 623 6
E 16 672 1
E 16 726 9
E 17 654 6
E 17 685 1
E 17 755 9
E 17 781 13
E 18 19 1
E 18 1275 5
E 18 1304 1
E 18 1314 1
E 19 1286 5
E 19 1318 1
E 19 1322 2
E 20 25 13
E 20 1357 1
E 20 1370 1
E 21 1369 1
E 21 1370 1
E 21 1392 11
E 22 23 1
E 22 1166 5
E 22 1201 1
E 22 1212 1
E 23 1174 5
E 23 1218 1
E 23 1219 1
E 24 1296 1
E 24 1306 1
E 25 1305 1
E 25 1306 1
E 26 27 1
E 26 1360 1
E 26 1361 1
E 26 1391 12
E 27 29 12
E 27 1368 1
E 27 1376 3
E 28 1361 12
E 28 1369 11
E 28 1391 1
E 28 1392 1
E 29 1391 1
E 29 1396 1
E 29 1397 3
E 30 38 1
E 30 1021 1
E 30 1086 10
E 31 917 39
E 31 1086 1
E 31 1100 1
E 32 1090 1
E 32 1091 1
E 32 1110 1
E 32 1167 10
E 33 1110 10
E 33 1167 1
E 33 1184 1
E 33 1185 1
E 34 35 10
E 34 36 5
E 34 1037 6
E 34 1091 4
E 35 37 5
E 35 1138 1
E 35 1160 4
E 36 37 10
E 36 38 1
E 36 1016 6
E 37 39 1
E 37 1111 1
E 38 39 10
E 38 1029 1
E 39 1086 1
E 39 1100 1
E 40 966 5
E 40 983 1
E 40 991 1
E 40 1028 9
E 41 916 21
E 41 991 1
E 41 1000 1
E 41 1044 9
E 42 218 1
E 42 1028 6
E 42 1060 1
E 42 1090 5
E 43 218 1
E 43 1044 6
E 43 1080 1
E 43 1109 5
E 44 983 9
E 44 1015 3
E 44 1028 1
E 44 1060 6
E 45 1000 9
E 45 1044 1
E 45 1073 5
E 45 1079 6
E 46 47 10
E 46 278 3
E 47 294 3
E 48 294 1
E 48 308 6
E 49 50 10
E 49 51 1
E 49 1405 1
E 50 52 1
E 51 52 10
E 51 1401 1
E 51 1402 1
E 52 54 1
E 53 1382 12
E 53 1388 7
E 53 1401 1
E 53 1402 1
E 54 1402 10
E 54 1408 5
E 55 467 5
E 55 493 1
E 55 507 1
E 55 592 12
E 56 524 10
E 56 592 1
E 56 614 1
E 56 640 4
E 57 58 10
E 57 293 3
E 57 297 1
E 57 330 9
E 58 331 1
E 58 338 1
E 58 368 9
E 59 273 6
E 59 277 4
E 59 284 3
E 59 289 6
E 60 284 10
E 60 294 6
E 60 308 1
E 60 331 6
E 61 545 2
E 61 555 1
E 61 603 5
E 61 645 10
E 62 613 6
E 62 645 2
E 62 774 17
E 63 400 4
E 63 409 2
E 63 449 5
E 63 485 10
E 64 474 4
E 64 485 2
E 64 538 5
E 64 640 17
E 65 348 2
E 65 354 1
E 65 363 2
E 65 393 10
E 66 68 3
E 66 388 2
E 66 402 1
E 66 414 4
E 67 307 8
E 67 333 2
E 67 354 3
E 67 380 10
E 68 360 8
E 68 380 2
E 68 403 4
E 69 271 9
E 69 288 6
E 69 298 10
E 70 283 9
E 70 299 1
E 70 313 4
E 70 325 6
E 71 1170 6
E 71 1209 1
E 71 1221 1
E 71 1250 5
E 72 1250 6
E 72 1291 1
E 72 1303 1
E 72 1316 4
E 73 1209 5
E 73 1240 1
E 73 1250 1
E 73 1291 6
E 74 1221 5
E 74 1250 1
E 74 1298 5
E 74 1303 6
E 75 101 5
E 75 271 1
E 75 279 10
E 76 276 5
E 76 279 1
E 76 281 1
E 76 282 1
E 77 78 1
E 77 602 5
E 77 638 1
E 77 661 2
E 78 612 5
E 78 660 1
E 78 666 2
E 79 671 10
E 79 733 1
E 79 789 9
E 79 818 14
E 80 544 5
E 80 545 5
E 80 603 2
E 80 622 4
E 81 82 10
E 81 603 4
E 81 622 2
E 81 652 2
E 82 677 4
E 82 723 3
E 82 768 9
E 83 84 1
E 83 366 23
E 83 466 3
E 83 499 2
E 84 372 23
E 84 498 1
E 84 506 2
E 85 516 10
E 85 584 1
E 85 613 2
E 85 645 6
E 86 339 23
E 86 409 5
E 86 449 2
E 86 466 4
E 87 88 10
E 87 449 4
E 87 466 2
E 87 484 1
E 88 523 4
E 88 559 1
E 88 566 2
E 89 90 1
E 89 367 3
E 89 385 2
E 90 384 1
E 90 387 2
E 91 392 10
E 91 439 1
E 91 450 1
E 91 460 2
E 92 93 2
E 92 348 2
E 92 363 2
E 93 367 1
E 93 373 2
E 94 377 10
E 94 410 1
E 94 427 2
E 94 433 3
E 95 96 1
E 95 291 3
E 95 303 2
E 96 302 1
E 96 305 2
E 97 307 10
E 97 343 1
E 97 355 1
E 97 380 8
E 98 99 2
E 98 263 21
E 98 288 2
E 99 291 1
E 99 295 2
E 100 296 10
E 100 323 1
E 100 334 1
E 100 340 3
E 101 263 2
E 101 266 1
E 101 274 10
E 102 103 1
E 102 261 5
E 102 264 3
E 102 269 10
E 103 104 1
E 103 267 10
E 104 215 10
E 105 246 41
E 105 257 1
E 105 262 12
E 106 107 1
E 106 256 12
E 106 261 3
E 106 264 5
E 107 257 12
E 107 262 1
E 107 266 5
E 108 109 10
E 108 1289 2
E 108 1297 1
E 109 1342 1
E 109 1348 1
E 110 1307 13
E 110 1348 3
E 111 112 10
E 111 1103 5
E 111 1126 2
E 111 1152 3
E 112 1169 5
E 112 1215 1
E 112 1230 3
E 113 1215 3
E 113 1230 1
E 113 1281 6
E 113 1282 6
E 114 115 10
E 114 986 2
E 114 987 2
E 114 1013 3
E 115 1033 2
E 115 1054 1
E 115 1063 3
E 116 1054 3
E 116 1063 1
E 116 1105 6
E 116 1106 6
E 117 118 10
E 117 877 6
E 117 891 2
E 117 910 3
E 118 915 6
E 118 939 1
E 118 946 3
E 119 939 3
E 119 946 1
E 119 958 2
E 119 1017 16
E 120 121 1
E 120 617 3
E 120 627 2
E 120 650 1
E 121 626 3
E 121 657 1
E 121 668 3
E 122 684 6
E 122 715 1
E 122 742 2
E 122 818 16
E 123 741 1
E 123 742 1
E 123 817 13
E 123 837 16
E 124 125 10
E 124 1204 7
E 124 1239 2
E 124 1271 3
E 125 127 7
E 125 1319 1
E 125 1326 3
E 126 1119 9
E 126 1145 4
E 126 1188 1
E 126 1229 7
E 127 1204 10
E 127 1230 6
E 127 1281 1
E 128 129 10
E 128 1041 7
E 128 1066 2
E 128 1089 2
E 129 1113 5
E 129 1146 1
E 129 1153 2
E 130 994 6
E 130 998 5
E 130 1024 1
E 130 1062 7
E 131 1041 10
E 131 1063 6
E 131 1104 1
E 131 1105 1
E 132 133 10
E 132 951 2
E 132 952 2
E 132 960 1
E 133 990 2
E 133 1006 1
E 133 1007 1
E 134 136 4
E 134 903 5
E 134 927 1
E 134 936 4
E 135 935 10
E 135 964 1
E 135 976 1
E 135 988 4
E 136 885 5
E 136 890 4
E 136 909 1
E 137 921 10
E 137 946 2
E 137 958 1
E 137 961 2
E 138 139 10
E 138 845 1
E 138 846 1
E 138 858 3
E 139 883 1
E 139 892 1
E 139 900 3
E 140 760 2
E 140 766 1
E 140 779 1
E 140 802 6
E 141 143 2
E 141 779 10
E 141 836 1
E 141 855 6
E 142 143 10
E 142 144 1
E 142 760 1
E 142 779 2
E 143 145 1
E 143 823 1
E 144 145 10
E 144 749 2
E 144 754 1
E 145 803 2
E 145 817 1
E 146 656 3
E 146 668 1
E 146 682 1
E 146 705 5
E 147 690 10
E 147 741 3
E 147 767 1
E 147 849 17
E 148 149 10
E 148 150 1
E 148 581 2
E 148 630 3
E 149 151 1
E 149 684 1
E 149 697 3
E 150 151 10
E 150 572 2
E 150 582 1
E 151 153 1
E 151 676 1
E 152 521 5
E 152 554 1
E 152 565 1
E 152 573 2
E 153 582 10
E 153 659 1
E 153 670 1
E 154 155 1
E 154 440 20
E 154 578 1
E 154 596 1
E 155 445 20
E 155 607 1
E 155 692 13
E 156 656 5
E 156 681 1
E 156 695 1
E 156 705 3
E 157 694 1
E 157 695 1
E 157 712 2
E 157 720 3
E 158 159 1
E 158 220 5
E 158 469 1
E 158 482 1
E 159 189 5
E 159 489 1
E 159 490 1
E 160 562 1
E 160 563 1
E 160 580 1
E 160 600 3
E 161 570 2
E 161 580 1
E 161 599 1
E 161 618 3
E 162 172 1
E 162 1213 10
E 163 1203 3
E 163 1214 1
E 163 1228 1
E 163 1249 4
E 164 165 1
E 164 655 6
E 164 686 1
E 164 764 10
E 165 692 1
E 165 746 6
E 165 772 10
E 166 728 6
E 166 765 1
E 166 777 1
E 166 778 1
E 167 776 1
E 167 777 1
E 167 784 1
E 167 872 19
E 168 180 1
E 168 286 19
E 168 322 6
E 168 383 10
E 169 372 5
E 169 383 1
E 169 390 1
E 169 413 6
E 170 171 10
E 170 172 1
E 170 1118 6
E 170 1161 1
E 171 173 1
E 171 1236 1
E 171 1237 1
E 172 173 10
E 173 1213 1
E 173 1227 1
E 174 176 5
E 174 370 6
E 174 396 1
E 174 442 10
E 175 396 10
E 175 442 1
E 175 456 1
E 175 457 1
E 176 177 10
E 176 178 5
E 176 371 1
E 177 179 5
E 177 417 1
E 177 437 4
E 178 179 10
E 178 180 1
E 178 332 6
E 179 181 1
E 179 397 1
E 180 181 10
E 180 328 6
E 181 383 1
E 181 390 1
E 182 222 1
E 182 1038 1
E 182 1051 1
E 182 1092 9
E 183 224 1
E 183 1051 1
E 183 1061 1
E 183 1112 9
E 184 219 1
E 184 1092 6
E 184 1129 1
E 184 1177 6
E 185 1038 9
E 185 1081 1
E 185 1092 1
E 185 1129 6
E 186 1061 9
E 186 1112 1
E 186 1278 23
E 187 265 48
E 187 382 2
E 187 440 14
E 188 220 1
E 188 405 6
E 188 430 1
E 188 469 5
E 189 220 1
E 189 412 6
E 189 454 1
E 190 351 13
E 190 375 7
E 190 405 1
E 190 424 5
E 191 412 1
E 191 454 6
E 191 606 26
E 192 193 13
E 192 265 2
E 192 285 19
E 192 286 19
E 193 310 17
E 193 315 18
E 194 956 1
E 194 985 6
E 195 221 1
E 195 985 9
E 195 1018 1
E 195 1030 1
E 196 224 1
E 196 1011 9
E 196 1061 1
E 197 204 55
E 197 956 6
E 197 985 1
E 197 1018 9
E 198 1011 1
E 199 200 2
E 199 709 6
E 200 691 1
E 200 727 6
E 201 202 2
E 201 709 9
E 201 771 1
E 201 879 22
E 202 727 9
E 202 786 1
E 202 926 32
E 203 709 1
E 203 771 9
E 204 691 6
E 204 727 1
E 204 786 9
E 205 248 2
E 205 251 1
E 206 207 2
E 206 246 41
E 206 255 2
E 207 258 2
E 207 260 1
E 208 240 40
E 208 249 5
E 208 252 1
E 208 254 7
E 209 253 1
E 209 259 7
E 210 228 1
E 210 229 1
E 210 232 1
E 210 236 5
E 211 235 7
E 211 241 1
E 211 261 55
E 212 213 10
E 213 225 2
E 214 226 1
E 214 230 5
E 215 267 1
E 215 268 1
E 216 1400 3
E 216 1410 9
E 217 593 5
E 217 678 6
E 218 1036 6
E 218 1099 5
E 219 1101 6
E 219 1186 6
E 220 408 6
E 221 222 1
E 221 989 9
E 221 1038 1
E 222 223 1
E 222 992 9
E 223 224 1
E 223 996 9
E 223 1051 1
E 224 1003 9
E 225 226 1
E 225 227 5
E 226 228 5
E 227 228 1
E 227 229 1
E 228 230 1
E 229 235 5
E 230 231 1
E 230 232 1
E 231 233 1
E 231 238 6
E 232 237 5
E 232 249 43
E 233 234 1
E 233 239 6
E 234 240 6
E 234 247 40
E 235 236 1
E 236 237 1
E 236 241 7
E 237 238 1
E 237 242 7
E 238 239 1
E 238 243 7
E 239 240 1
E 239 244 7
E 240 245 7
E 241 242 1
E 242 243 1
E 243 244 1
E 243 256 43
E 244 245 1
E 244 257 43
E 245 246 2
E 245 254 40
E 247 248 1
E 247 249 1
E 248 250 1
E 249 250 1
E 250 251 2
E 250 252 5
E 251 253 5
E 252 253 2
E 252 255 7
E 253 258 7
E 254 255 1
E 255 258 2
E 256 257 1
E 258 259 1
E 259 260 2
E 260 265 13
E 262 263 3
E 264 266 1
E 266 272 10
E 267 269 1
E 268 270 1
E 268 275 6
E 269 272 4
E 270 273 4
E 270 277 6
E 271 280 10
E 272 274 1
E 272 275 1
E 273 278 3
E 274 276 1
E 274 279 5
E 275 276 1
E 275 277 1
E 277 282 6
E 278 284 6
E 278 294 10
E 279 280 1
E 280 281 1
E 280 298 9
E 281 283 1
E 281 299 9
E 282 283 1
E 282 289 4
E 283 293 4
E 284 297 6
E 285 287 1
E 285 301 7
E 286 309 10
E 287 290 1
E 287 304 7
E 288 292 1
E 288 312 10
E 289 293 1
E 289 297 3
E 290 300 5
E 290 306 7
E 291 296 2
E 292 295 1
E 292 317 10
E 293 313 9
E 295 296 1
E 295 323 10
E 296 303 3
E 297 331 10
E 298 299 1
E 298 312 6
E 299 318 6
E 300 314 5
E 300 326 7
E 301 304 1
E 301 315 5
E 302 307 2
E 302 333 8
E 303 305 1
E 303 340 10
E 304 306 1
E 304 321 5
E 305 307 1
E 305 343 10
E 306 326 5
E 306 327 5
E 308 338 7
E 309 310 1
E 309 311 1
E 310 316 1
E 310 336 5
E 311 316 1
E 311 391 26
E 312 317 1
E 312 318 1
E 313 319 1
E 313 341 6
E 314 320 1
E 314 346 7
E 315 321 1
E 315 322 1
E 316 339 5
E 316 409 23
E 317 323 1
E 317 324 1
E 318 324 1
E 318 325 1
E 319 330 2
E 319 345 6
E 320 351 7
E 320 375 13
E 321 327 1
E 321 328 1
E 322 328 1
E 323 335 2
E 324 329 1
E 324 334 2
E 325 329 1
E 325 341 4
E 326 346 5
E 326 347 5
E 327 332 1
E 327 347 5
E 328 332 1
E 329 335 1
E 329 344 4
E 330 358 6
E 330 368 10
E 332 352 5
E 333 342 3
E 334 337 1
E 334 355 5
E 335 337 1
E 336 339 1
E 336 353 4
E 337 349 3
E 337 357 4
E 338 395 15
E 339 359 4
E 340 343 1
E 340 349 2
E 341 344 1
E 341 345 1
E 342 348 1
E 342 354 2
E 343 356 2
E 344 350 1
E 344 357 2
E 345 350 1
E 345 358 2
E 346 351 1
E 346 364 5
E 347 352 1
E 347 364 5
E 349 356 1
E 350 361 2
E 350 378 7
E 351 369 5
E 352 370 5
E 352 371 5
E 353 359 1
E 353 362 3
E 354 388 10
E 355 360 1
E 356 360 1
E 357 374 5
E 357 404 13
E 358 361 1
E 358 389 10
E 359 366 3
E 359 466 23
E 360 374 4
E 361 394 10
E 361 415 15
E 362 365 1
E 362 366 1
E 363 373 2
E 363 401 10
E 364 369 1
E 364 370 1
E 365 372 1
E 365 383 5
E 366 372 1
E 367 377 2
E 368 389 6
E 369 376 1
E 369 424 13
E 370 376 1
E 371 463 19
E 373 377 1
E 373 410 10
E 374 378 1
E 374 403 8
E 375 379 1
E 376 396 6
E 376 430 13
E 377 385 3
E 378 407 8
E 378 429 12
E 379 381 1
E 379 405 7
E 380 388 3
E 381 382 1
E 381 408 7
E 382 412 7
E 384 386 1
E 384 392 2
E 385 387 1
E 385 433 10
E 386 391 1
E 386 398 2
E 387 392 1
E 387 439 10
E 388 393 1
E 389 394 1
E 389 395 1
E 390 397 1
E 390 419 6
E 391 400 2
E 391 409 4
E 392 398 1
E 393 401 2
E 393 402 2
E 394 399 1
E 394 404 2
E 395 399 1
E 395 416 5
E 396 436 8
E 397 406 2
E 397 417 5
E 398 400 1
E 398 450 10
E 399 423 5
E 399 488 15
E 400 459 10
E 401 410 2
E 401 411 2
E 402 411 2
E 402 421 4
E 403 407 1
E 403 414 3
E 404 429 5
E 404 435 6
E 405 408 1
E 406 418 3
E 406 431 5
E 407 415 2
E 407 422 3
E 408 412 1
E 410 420 2
E 411 420 2
E 413 419 1
E 413 426 2
E 414 421 1
E 414 422 1
E 415 434 3
E 415 481 10
E 416 423 1
E 416 453 6
E 417 431 2
E 417 443 4
E 418 425 1
E 418 448 5
E 419 425 1
E 419 432 2
E 420 427 1
E 421 428 1
E 421 452 5
E 422 428 1
E 422 434 2
E 423 435 2
E 423 462 6
E 424 430 1
E 425 438 2
E 425 458 5
E 426 432 1
E 426 492 10
E 427 444 3
E 427 452 4
E 428 461 5
E 429 468 6
E 429 481 8
E 430 463 5
E 431 448 3
E 431 529 14
E 432 438 1
E 432 497 10
E 433 439 1
E 433 444 2
E 434 476 6
E 434 500 10
E 435 468 5
E 435 477 6
E 436 441 1
E 436 502 10
E 437 442 1
E 437 443 1
E 438 473 5
E 438 505 10
E 439 451 2
E 440 445 1
E 441 446 1
E 441 512 10
E 442 447 1
E 443 447 1
E 443 483 6
E 444 451 1
E 444 475 4
E 445 532 12
E 446 455 1
E 446 519 10
E 447 457 1
E 447 491 6
E 448 458 1
E 448 554 14
E 449 523 10
E 450 459 1
E 450 467 2
E 451 460 1
E 451 487 5
E 452 461 1
E 452 475 3
E 453 462 1
E 453 517 9
E 454 489 5
E 454 655 26
E 455 470 2
E 455 527 10
E 456 464 1
E 456 465 1
E 457 465 1
E 457 495 6
E 458 473 2
E 458 483 4
E 459 474 2
E 459 485 4
E 460 467 1
E 460 486 4
E 461 476 2
E 461 480 3
E 462 477 2
E 462 526 9
E 463 469 1
E 463 470 1
E 464 471 1
E 464 472 1
E 465 472 1
E 465 503 6
E 467 474 1
E 468 509 6
E 468 525 8
E 469 478 1
E 470 478 1
E 470 542 10
E 471 479 1
E 471 502 5
E 472 479 1
E 472 514 6
E 473 496 4
E 473 544 10
E 474 507 5
E 475 480 1
E 475 486 2
E 476 524 7
E 476 547 10
E 477 509 5
E 478 482 1
E 478 551 10
E 479 513 5
E 479 521 6
E 480 487 1
E 480 567 12
E 481 488 1
E 481 500 3
E 482 490 1
E 482 556 10
E 483 491 1
E 483 496 2
E 484 499 2
E 484 559 10
E 485 523 5
E 486 493 1
E 487 493 1
E 487 577 12
E 488 508 3
E 488 525 5
E 489 494 1
E 489 501 2
E 490 494 1
E 490 560 10
E 491 495 1
E 491 504 2
E 492 497 1
E 492 531 5
E 493 585 12
E 494 511 2
E 494 569 10
E 495 503 1
E 495 515 2
E 496 504 1
E 496 574 10
E 497 505 1
E 497 537 5
E 498 516 2
E 498 531 4
E 499 506 1
E 499 575 10
E 500 508 1
E 500 547 6
E 501 510 1
E 501 511 1
E 502 512 1
E 502 513 1
E 503 514 1
E 503 522 2
E 504 515 1
E 504 583 10
E 505 544 5
E 505 545 5
E 506 516 1
E 506 584 10
E 507 524 2
E 507 639 16
E 508 548 5
E 508 586 10
E 509 568 8
E 510 518 1
E 510 533 3
E 511 518 1
E 511 588 10
E 512 519 1
E 512 520 1
E 513 520 1
E 513 529 2
E 514 521 1
E 514 530 2
E 515 522 1
E 515 590 10
E 516 546 4
E 517 526 1
E 518 541 3
E 518 597 10
E 519 527 1
E 519 528 1
E 520 528 1
E 520 535 2
E 521 536 2
E 522 530 1
E 522 602 10
E 523 538 2
E 524 631 13
E 525 548 3
E 525 568 6
E 526 549 3
E 526 726 27
E 527 534 1
E 527 542 2
E 528 534 1
E 528 543 2
E 529 535 1
E 529 554 3
E 530 536 1
E 530 612 10
E 531 537 1
E 531 546 2
E 532 539 1
E 532 606 9
E 533 540 1
E 533 541 1
E 534 552 2
E 534 553 2
E 535 543 1
E 535 558 3
E 536 573 5
E 536 621 10
E 537 545 1
E 537 555 2
E 538 566 4
E 539 615 9
E 539 771 33
E 540 550 1
E 540 578 5
E 541 550 1
E 541 625 10
E 542 551 1
E 542 552 1
E 543 553 1
E 543 564 3
E 544 574 4
E 546 555 1
E 547 567 3
E 547 594 6
E 548 594 6
E 548 595 6
E 549 605 7
E 549 752 27
E 550 587 5
E 550 633 10
E 551 556 1
E 551 557 1
E 552 557 1
E 552 563 2
E 553 563 2
E 553 571 3
E 554 558 1
E 556 560 1
E 556 561 1
E 557 561 1
E 557 562 1
E 558 564 1
E 558 565 1
E 559 575 2
E 559 576 2
E 560 569 1
E 560 570 1
E 561 570 1
E 561 580 2
E 562 589 3
E 563 601 4
E 564 571 1
E 564 572 1
E 565 572 1
E 565 582 2
E 566 576 1
E 566 631 7
E 567 577 1
E 567 623 6
E 568 595 3
E 569 579 1
E 569 588 2
E 570 579 1
E 571 581 1
E 571 600 3
E 572 581 1
E 573 582 1
E 573 659 10
E 574 583 1
E 574 622 5
E 575 584 1
E 575 591 2
E 576 591 2
E 576 702 17
E 577 585 1
E 577 586 1
E 578 587 1
E 579 589 1
E 579 598 2
E 580 610 3
E 581 601 2
E 583 590 1
E 584 604 2
E 585 592 1
E 585 593 1
E 586 593 1
E 587 596 1
E 587 667 10
E 588 597 1
E 588 598 1
E 589 599 1
E 589 609 2
E 590 602 1
E 590 638 5
E 591 604 1
E 591 639 5
E 593 614 2
E 594 623 3
E 596 607 1
E 596 673 10
E 597 608 1
E 597 625 3
E 598 608 1
E 598 609 1
E 599 617 2
E 599 627 3
E 600 610 1
E 600 611 1
E 601 611 1
E 602 612 1
E 603 677 10
E 604 613 1
E 604 646 5
E 605 785 27
E 606 615 1
E 606 655 6
E 607 624 2
E 607 679 10
E 608 616 1
E 608 634 3
E 609 616 1
E 609 617 1
E 610 618 1
E 610 619 1
E 611 619 1
E 611 620 1
E 612 621 1
E 614 654 5
E 614 707 14
E 615 663 6
E 616 626 1
E 616 642 3
E 617 626 1
E 618 627 1
E 618 628 1
E 619 628 1
E 619 629 1
E 620 629 1
E 620 630 1
E 621 659 5
E 621 660 5
E 622 638 2
E 624 632 1
E 624 693 10
E 625 633 1
E 625 634 1
E 626 649 3
E 627 635 1
E 628 635 1
E 628 636 1
E 629 636 1
E 629 637 1
E 630 637 1
E 630 697 10
E 631 653 3
E 631 698 10
E 632 647 2
E 632 699 10
E 633 641 1
E 633 667 5
E 634 641 1
E 634 642 1
E 635 643 1
E 635 650 2
E 636 643 1
E 636 644 1
E 637 644 1
E 637 701 10
E 638 652 2
E 639 646 1
E 639 653 2
E 640 698 9
E 641 648 1
E 641 674 5
E 642 648 1
E 642 649 1
E 643 651 1
E 643 658 2
E 644 651 1
E 644 706 10
E 645 677 5
E 646 662 2
E 647 686 6
E 647 710 10
E 648 656 1
E 648 681 5
E 649 656 1
E 649 668 3
E 650 657 1
E 650 658 1
E 651 665 2
E 651 715 10
E 652 661 1
E 653 662 1
E 653 716 10
E 654 743 13
E 655 663 1
E 657 664 1
E 657 675 3
E 658 664 1
E 658 665 1
E 660 670 10
E 660 671 2
E 660 878 39
E 661 666 1
E 661 723 10
E 662 724 10
E 662 768 16
E 663 692 5
E 664 669 1
E 664 683 3
E 665 669 1
E 665 732 10
E 666 671 1
E 666 733 10
E 667 673 1
E 667 674 1
E 668 675 1
E 669 690 3
E 669 741 10
E 670 676 1
E 672 678 1
E 672 708 6
E 673 679 1
E 673 680 1
E 674 680 1
E 674 681 1
E 675 682 1
E 675 683 1
E 676 684 1
E 678 685 1
E 678 717 6
E 679 687 1
E 679 693 2
E 680 687 1
E 680 688 1
E 681 688 1
E 682 689 1
E 682 714 5
E 683 689 1
E 683 690 1
E 686 758 10
E 687 694 1
E 687 700 2
E 688 694 1
E 688 695 1
E 689 696 1
E 689 722 5
E 690 696 1
E 691 956 55
E 693 699 1
E 693 700 1
E 694 704 2
E 695 713 3
E 696 731 5
E 696 767 10
E 697 701 1
E 698 702 1
E 698 743 6
E 699 703 1
E 699 710 2
E 700 703 1
E 700 704 1
E 701 706 1
E 702 707 1
E 702 716 2
E 703 711 1
E 703 718 2
E 704 711 1
E 704 712 1
E 705 713 1
E 705 714 1
E 706 715 1
E 707 725 2
E 707 750 5
E 708 717 1
E 708 735 3
E 709 727 2
E 710 718 1
E 710 758 6
E 711 719 1
E 711 728 2
E 712 719 1
E 712 738 3
E 713 720 1
E 713 721 1
E 714 721 1
E 714 722 1
E 715 732 2
E 716 724 1
E 716 725 1
E 717 744 3
E 717 829 19
E 718 728 1
E 718 765 6
E 719 737 2
E 719 747 3
E 720 729 1
E 720 738 2
E 721 729 1
E 721 730 1
E 722 730 1
E 722 731 1
E 723 733 1
E 724 734 1
E 724 774 7
E 725 734 1
E 725 761 5
E 726 735 1
E 726 736 1
E 728 737 1
E 729 739 1
E 729 748 2
E 730 739 1
E 730 740 1
E 731 740 1
E 731 788 10
E 732 741 1
E 732 742 1
E 734 769 5
E 734 780 7
E 735 744 1
E 735 745 1
E 736 745 1
E 736 752 2
E 737 759 3
E 737 778 6
E 738 747 1
E 738 748 1
E 739 749 1
E 739 754 2
E 740 749 1
E 740 795 10
E 743 750 1
E 743 781 6
E 744 751 1
E 745 751 1
E 745 757 2
E 746 798 10
E 746 814 13
E 747 753 1
E 747 759 2
E 748 753 1
E 748 754 1
E 749 803 10
E 750 761 2
E 750 783 6
E 751 756 1
E 751 763 2
E 752 757 1
E 752 785 7
E 753 760 1
E 753 766 2
E 754 760 1
E 755 762 1
E 756 762 1
E 756 770 2
E 757 763 1
E 757 791 7
E 758 764 1
E 758 765 1
E 759 766 1
E 759 787 6
E 761 769 1
E 761 790 6
E 762 775 2
E 762 830 13
E 763 770 1
E 763 797 7
E 764 772 1
E 764 773 1
E 765 773 1
E 766 794 6
E 767 788 5
E 768 789 5
E 768 819 10
E 769 796 6
E 769 804 7
E 770 775 1
E 770 805 7
E 771 875 22
E 772 776 1
E 772 792 5
E 773 776 1
E 773 777 1
E 774 780 1
E 774 819 9
E 775 810 7
E 775 842 13
E 776 799 5
E 777 782 1
E 778 782 1
E 778 787 3
E 779 809 6
E 780 804 5
E 780 824 9
E 781 783 1
E 781 830 10
E 782 784 1
E 782 793 3
E 783 790 2
E 784 800 3
E 785 791 1
E 785 813 5
E 786 930 32
E 787 793 1
E 787 794 1
E 788 795 1
E 789 847 10
E 789 977 44
E 790 796 1
E 791 797 1
E 791 820 5
E 792 798 1
E 793 800 1
E 793 801 1
E 794 801 1
E 794 802 1
E 795 803 1
E 796 829 6
E 797 805 1
E 797 825 5
E 798 806 1
E 798 815 3
E 799 806 1
E 800 807 1
E 800 828 5
E 801 807 1
E 801 808 1
E 802 808 1
E 802 809 1
E 804 851 9
E 804 861 12
E 805 810 1
E 805 831 5
E 806 822 3
E 806 834 5
E 807 811 1
E 807 835 5
E 808 811 1
E 808 812 1
E 809 812 1
E 809 855 10
E 810 838 5
E 811 816 1
E 811 845 6
E 812 816 1
E 812 859 10
E 813 820 1
E 814 843 5
E 814 862 10
E 815 821 1
E 816 846 5
E 816 865 10
E 817 823 1
E 817 887 16
E 818 837 3
E 819 824 1
E 819 847 5
E 820 825 1
E 821 826 1
E 822 827 1
E 823 836 2
E 823 893 16
E 824 850 5
E 824 851 5
E 825 831 1
E 826 832 1
E 827 833 1
E 828 834 1
E 828 835 1
E 829 861 7
E 830 842 2
E 831 838 1
E 832 839 1
E 833 840 1
E 834 841 1
E 834 885 13
E 835 841 1
E 835 846 2
E 836 860 6
E 836 901 16
E 837 849 3
E 838 888 13
E 839 862 6
E 840 844 1
E 841 845 1
E 841 852 3
E 842 848 1
E 843 856 4
E 843 882 10
E 844 867 6
E 846 883 10
E 847 850 1
E 847 995 39
E 848 853 2
E 848 874 7
E 849 887 10
E 850 871 5
E 850 1002 39
E 851 871 5
E 851 897 12
E 852 854 1
E 852 858 2
E 853 881 7
E 854 857 1
E 854 864 2
E 855 859 1
E 855 860 1
E 856 875 4
E 856 898 10
E 857 863 1
E 857 869 2
E 858 864 1
E 858 900 10
E 859 865 1
E 859 866 1
E 860 866 1
E 860 878 4
E 861 897 9
E 862 867 1
E 862 876 3
E 863 868 1
E 863 873 2
E 864 869 1
E 864 905 10
E 865 870 1
E 865 883 5
E 866 870 1
E 866 929 16
E 867 872 1
E 867 880 3
E 868 877 2
E 868 891 6
E 869 873 1
E 869 907 10
E 870 886 5
E 870 933 16
E 871 917 12
E 871 1021 39
E 872 885 4
E 872 890 5
E 873 877 1
E 873 911 10
E 874 881 2
E 874 894 5
E 875 879 1
E 875 913 10
E 876 880 1
E 876 882 2
E 877 915 10
E 878 925 12
E 879 918 10
E 880 884 2
E 880 904 6
E 881 902 5
E 882 884 1
E 882 889 2
E 883 886 1
E 884 890 1
E 884 896 2
E 885 891 1
E 886 892 1
E 886 967 21
E 887 893 1
E 888 894 1
E 889 895 1
E 891 904 3
E 892 906 3
E 892 953 16
E 893 901 2
E 894 902 2
E 895 898 1
E 896 899 1
E 897 917 5
E 898 903 1
E 898 913 4
E 899 903 1
E 900 905 1
E 900 906 1
E 901 925 6
E 903 919 4
E 904 909 2
E 904 910 2
E 905 907 1
E 905 908 1
E 906 908 1
E 906 983 21
E 907 911 1
E 907 912 1
E 908 912 1
E 908 966 16
E 909 914 1
E 909 921 2
E 910 921 2
E 910 946 10
E 911 915 1
E 911 916 1
E 912 916 1
E 912 991 21
E 913 918 1
E 913 919 1
E 914 920 1
E 915 922 1
E 916 922 1
E 918 923 1
E 918 926 2
E 919 923 1
E 919 936 5
E 920 924 1
E 920 928 2
E 921 928 2
E 922 939 6
E 922 1000 21
E 923 931 2
E 923 937 5
E 924 927 1
E 924 932 2
E 925 929 1
E 925 940 5
E 926 930 1
E 926 931 1
E 927 935 2
E 927 938 4
E 928 932 1
E 928 961 10
E 929 933 1
E 929 942 5
E 930 934 1
E 930 943 5
E 931 934 1
E 931 944 5
E 932 935 1
E 932 964 10
E 933 947 5
E 933 953 6
E 934 949 5
E 934 950 5
E 935 945 4
E 936 937 1
E 936 938 1
E 937 941 1
E 937 944 2
E 938 941 1
E 938 945 2
E 939 1014 17
E 940 942 1
E 940 977 9
E 941 951 2
E 941 952 2
E 942 947 1
E 942 980 9
E 943 948 1
E 944 950 1
E 944 951 1
E 945 952 1
E 945 988 10
E 947 967 5
E 947 984 9
E 948 957 2
E 949 954 1
E 949 969 5
E 950 955 1
E 950 963 4
E 951 955 1
E 952 990 10
E 953 966 4
E 953 972 5
E 954 959 2
E 954 974 5
E 955 960 2
E 955 970 4
E 957 959 1
E 957 968 3
E 958 962 1
E 958 1035 17
E 959 973 3
E 959 981 5
E 960 979 4
E 960 1006 10
E 961 964 1
E 961 965 1
E 962 965 1
E 962 1064 21
E 963 969 1
E 963 970 1
E 964 971 1
E 965 971 1
E 965 1043 16
E 966 1017 12
E 967 972 1
E 967 1008 9
E 968 973 1
E 968 993 6
E 969 974 1
E 969 975 1
E 970 975 1
E 970 979 2
E 971 976 1
E 971 1055 17
E 972 983 3
E 972 1015 9
E 973 994 5
E 973 998 6
E 974 978 1
E 974 981 2
E 975 978 1
E 975 982 2
E 976 1007 7
E 976 1058 17
E 977 980 1
E 977 995 5
E 978 986 2
E 978 987 2
E 979 982 1
E 979 1019 10
E 980 984 1
E 980 1001 5
E 981 986 1
E 981 994 3
E 982 987 1
E 982 1025 10
E 984 1008 5
E 984 1009 5
E 985 989 1
E 986 999 3
E 987 1033 10
E 988 990 1
E 989 992 1
E 991 1036 9
E 992 996 1
E 993 997 1
E 993 998 1
E 994 999 1
E 995 1001 1
E 995 1002 1
E 996 1003 1
E 997 1004 1
E 998 1005 1
E 999 1013 2
E 999 1024 6
E 1000 1027 6
E 1001 1009 1
E 1001 1010 1
E 1002 1010 1
E 1002 1021 5
E 1003 1011 1
E 1004 1023 5
E 1005 1012 1
E 1006 1019 4
E 1007 1026 5
E 1007 1096 17
E 1008 1015 1
E 1008 1037 6
E 1009 1016 1
E 1009 1073 13
E 1010 1016 1
E 1010 1029 5
E 1012 1031 5
E 1013 1041 6
E 1013 1063 10
E 1014 1020 3
E 1014 1027 4
E 1015 1045 6
E 1016 1037 5
E 1017 1020 1
E 1017 1043 4
E 1018 1022 1
E 1019 1025 1
E 1019 1026 1
E 1020 1035 2
E 1020 1049 4
E 1021 1029 1
E 1022 1030 1
E 1022 1074 9
E 1023 1031 1
E 1023 1039 2
E 1024 1032 1
E 1024 1041 2
E 1025 1033 1
E 1025 1034 1
E 1026 1034 1
E 1026 1130 17
E 1027 1049 3
E 1027 1050 3
E 1028 1036 1
E 1029 1085 10
E 1030 1038 1
E 1030 1081 9
E 1031 1047 2
E 1031 1062 5
E 1032 1040 1
E 1033 1042 1
E 1034 1042 1
E 1034 1067 6
E 1035 1048 2
E 1035 1059 4
E 1036 1044 1
E 1037 1045 1
E 1039 1046 1
E 1040 1066 5
E 1042 1054 2
E 1042 1070 6
E 1043 1048 1
E 1043 1171 21
E 1045 1060 3
E 1046 1052 1
E 1047 1053 1
E 1048 1055 1
E 1048 1068 4
E 1049 1059 2
E 1049 1065 3
E 1050 1056 1
E 1050 1065 3
E 1051 1101 9
E 1052 1075 5
E 1053 1057 1
E 1054 1084 6
E 1055 1058 1
E 1055 1071 4
E 1056 1069 3
E 1056 1079 5
E 1057 1082 5
E 1058 1077 4
E 1058 1096 7
E 1059 1064 1
E 1059 1072 3
E 1060 1085 5
E 1062 1066 1
E 1062 1119 9
E 1064 1068 1
E 1064 1122 9
E 1065 1069 1
E 1065 1072 2
E 1066 1076 2
E 1067 1070 1
E 1067 1095 5
E 1068 1071 1
E 1068 1128 9
E 1069 1078 2
E 1069 1098 5
E 1070 1084 2
E 1070 1107 5
E 1071 1077 1
E 1071 1131 9
E 1072 1078 1
E 1072 1097 4
E 1073 1080 1
E 1073 1149 12
E 1074 1081 1
E 1074 1118 6
E 1075 1082 1
E 1075 1093 3
E 1076 1083 1
E 1076 1089 2
E 1077 1097 3
E 1077 1127 7
E 1078 1108 4
E 1078 1115 5
E 1079 1098 3
E 1079 1123 6
E 1080 1116 5
E 1080 1123 6
E 1081 1125 6
E 1082 1087 1
E 1082 1102 3
E 1083 1088 1
E 1083 1094 2
E 1084 1106 3
E 1084 1121 5
E 1085 1090 1
E 1085 1091 1
E 1087 1119 4
E 1087 1145 9
E 1088 1103 2
E 1088 1126 5
E 1089 1094 1
E 1089 1153 10
E 1090 1099 1
E 1091 1160 10
E 1092 1101 1
E 1093 1102 1
E 1093 1132 6
E 1094 1103 1
E 1094 1162 10
E 1095 1107 1
E 1095 1135 6
E 1096 1127 4
E 1096 1130 5
E 1097 1108 1
E 1097 1144 7
E 1098 1115 2
E 1098 1137 6
E 1099 1109 1
E 1099 1110 1
E 1100 1111 1
E 1101 1112 1
E 1102 1139 6
E 1102 1140 6
E 1103 1169 10
E 1104 1113 1
E 1104 1114 1
E 1105 1114 1
E 1105 1142 6
E 1106 1134 5
E 1106 1142 6
E 1107 1121 2
E 1107 1143 6
E 1108 1136 5
E 1108 1148 7
E 1109 1116 1
E 1109 1117 1
E 1110 1117 1
E 1111 1138 5
E 1112 1268 23
E 1113 1120 1
E 1114 1120 1
E 1114 1147 6
E 1115 1122 1
E 1115 1150 6
E 1116 1124 1
E 1116 1151 6
E 1117 1124 1
E 1117 1184 10
E 1118 1125 1
E 1119 1126 1
E 1120 1133 3
E 1120 1154 6
E 1121 1134 3
E 1121 1155 6
E 1122 1128 1
E 1122 1149 5
E 1123 1137 3
E 1123 1151 5
E 1124 1159 6
E 1124 1195 10
E 1125 1129 1
E 1125 1161 6
E 1126 1140 3
E 1127 1144 3
E 1127 1156 5
E 1128 1131 1
E 1128 1157 5
E 1129 1168 6
E 1130 1135 1
E 1130 1156 4
E 1131 1136 1
E 1131 1165 5
E 1132 1139 1
E 1132 1187 7
E 1133 1141 1
E 1133 1179 6
E 1134 1171 5
E 1134 1180 6
E 1135 1143 1
E 1135 1164 4
E 1136 1173 5
E 1136 1193 7
E 1137 1150 2
E 1137 1175 5
E 1138 1176 5
E 1139 1145 1
E 1139 1196 7
E 1140 1152 2
E 1140 1188 6
E 1141 1146 1
E 1141 1189 6
E 1142 1147 1
E 1142 1180 5
E 1143 1155 2
E 1143 1172 4
E 1144 1148 1
E 1144 1192 6
E 1145 1203 7
E 1146 1163 2
E 1146 1197 6
E 1147 1154 1
E 1147 1190 5
E 1148 1193 5
E 1148 1200 6
E 1149 1157 1
E 1149 1158 1
E 1150 1158 1
E 1150 1194 5
E 1151 1159 1
E 1151 1175 3
E 1152 1204 6
E 1152 1230 10
E 1153 1162 1
E 1153 1163 1
E 1154 1179 3
E 1154 1198 5
E 1155 1181 3
E 1155 1191 4
E 1156 1164 1
E 1156 1224 9
E 1157 1165 1
E 1157 1166 1
E 1158 1166 1
E 1158 1201 5
E 1159 1183 3
E 1160 1167 1
E 1161 1168 1
E 1161 1236 10
E 1162 1169 1
E 1162 1170 1
E 1163 1170 1
E 1163 1209 6
E 1164 1172 1
E 1164 1192 3
E 1165 1173 1
E 1165 1174 1
E 1166 1174 1
E 1167 1176 1
E 1168 1177 1
E 1168 1244 10
E 1169 1178 1
E 1170 1178 1
E 1171 1181 1
E 1172 1191 2
E 1172 1199 3
E 1173 1182 1
E 1173 1225 7
E 1174 1182 1
E 1175 1183 1
E 1175 1194 2
E 1176 1185 1
E 1177 1186 1
E 1177 1247 10
E 1178 1215 5
E 1178 1221 6
E 1179 1189 1
E 1179 1216 5
E 1180 1190 1
E 1180 1223 6
E 1181 1210 4
E 1181 1223 6
E 1182 1218 5
E 1182 1235 7
E 1183 1202 2
E 1184 1195 1
E 1185 1288 14
E 1186 1253 10
E 1187 1196 1
E 1187 1208 3
E 1188 1204 2
E 1188 1239 7
E 1189 1197 1
E 1189 1222 5
E 1190 1198 1
E 1190 1232 6
E 1191 1210 3
E 1191 1211 3
E 1192 1199 1
E 1192 1200 1
E 1193 1224 5
E 1193 1225 5
E 1194 1201 1
E 1194 1202 1
E 1195 1277 12
E 1196 1203 1
E 1196 1214 3
E 1197 1205 1
E 1197 1231 5
E 1198 1216 3
E 1198 1241 6
E 1199 1206 1
E 1199 1211 2
E 1200 1206 1
E 1200 1234 5
E 1201 1207 1
E 1202 1207 1
E 1203 1229 4
E 1205 1209 1
E 1205 1240 5
E 1206 1217 2
E 1206 1243 5
E 1207 1212 1
E 1207 1277 10
E 1208 1213 1
E 1208 1214 1
E 1210 1233 3
E 1210 1251 6
E 1211 1217 1
E 1211 1233 3
E 1212 1219 1
E 1212 1287 10
E 1213 1220 1
E 1214 1220 1
E 1215 1298 11
E 1216 1222 1
E 1216 1257 6
E 1217 1242 3
E 1217 1252 5
E 1218 1226 1
E 1218 1267 7
E 1219 1226 1
E 1219 1295 10
E 1220 1227 1
E 1220 1228 1
E 1221 1282 8
E 1222 1231 1
E 1222 1263 6
E 1223 1232 1
E 1223 1251 4
E 1224 1234 1
E 1224 1259 5
E 1225 1235 1
E 1225 1259 5
E 1226 1276 7
E 1227 1237 1
E 1227 1238 1
E 1228 1238 1
E 1228 1255 4
E 1229 1239 1
E 1229 1249 3
E 1231 1240 1
E 1231 1272 6
E 1232 1241 1
E 1232 1258 4
E 1233 1242 1
E 1233 1284 7
E 1234 1243 1
E 1234 1265 5
E 1235 1266 5
E 1235 1267 5
E 1236 1244 1
E 1236 1245 1
E 1237 1245 1
E 1237 1246 1
E 1238 1246 1
E 1238 1261 4
E 1239 1256 3
E 1240 1283 6
E 1241 1257 3
E 1241 1264 4
E 1242 1273 5
E 1242 1285 6
E 1243 1252 2
E 1243 1274 5
E 1244 1247 1
E 1244 1248 1
E 1245 1248 1
E 1245 1289 6
E 1246 1269 4
E 1247 1253 1
E 1247 1254 1
E 1248 1254 1
E 1249 1255 1
E 1249 1256 1
E 1251 1258 1
E 1251 1285 4
E 1252 1273 3
E 1252 1294 5
E 1253 1260 1
E 1254 1260 1
E 1255 1261 1
E 1255 1262 1
E 1256 1262 1
E 1256 1271 2
E 1257 1263 1
E 1257 1376 25
E 1258 1264 1
E 1258 1284 3
E 1259 1265 1
E 1259 1266 1
E 1260 1268 1
E 1260 1307 6
E 1261 1269 1
E 1261 1270 1
E 1262 1270 1
E 1262 1280 2
E 1263 1272 1
E 1263 1338 13
E 1264 1292 3
E 1264 1311 7
E 1265 1274 1
E 1265 1275 1
E 1266 1275 1
E 1266 1304 5
E 1267 1276 1
E 1267 1304 5
E 1268 1278 1
E 1269 1279 1
E 1270 1279 1
E 1270 1290 2
E 1271 1280 1
E 1271 1326 10
E 1272 1283 1
E 1272 1344 13
E 1273 1308 5
E 1273 1312 6
E 1274 1286 1
E 1274 1294 2
E 1275 1286 1
E 1276 1309 5
E 1277 1287 1
E 1277 1288 1
E 1279 1289 1
E 1279 1297 2
E 1280 1290 1
E 1280 1329 10
E 1281 1315 6
E 1281 1319 7
E 1282 1310 5
E 1282 1315 6
E 1283 1291 1
E 1283 1367 18
E 1284 1292 1
E 1284 1293 1
E 1285 1293 1
E 1285 1312 5
E 1286 1300 2
E 1287 1295 1
E 1287 1302 2
E 1288 1296 1
E 1288 1301 2
E 1289 1307 3
E 1290 1297 1
E 1290 1334 10
E 1291 1311 4
E 1292 1299 1
E 1292 1324 7
E 1293 1299 1
E 1293 1317 5
E 1294 1300 1
E 1294 1308 3
E 1295 1301 1
E 1295 1351 14
E 1296 1302 1
E 1297 1342 10
E 1298 1310 3
E 1298 1323 6
E 1299 1321 5
E 1299 1328 7
E 1300 1313 3
E 1300 1322 5
E 1301 1305 1
E 1301 1356 14
E 1302 1305 1
E 1302 1306 1
E 1303 1320 4
E 1303 1323 5
E 1304 1309 1
E 1305 1357 13
E 1308 1313 1
E 1308 1332 6
E 1309 1314 1
E 1309 1357 12
E 1310 1335 6
E 1310 1336 6
E 1311 1316 1
E 1311 1324 3
E 1312 1317 1
E 1312 1332 5
E 1313 1333 5
E 1313 1340 6
E 1314 1318 1
E 1314 1351 10
E 1315 1335 5
E 1315 1347 7
E 1316 1320 1
E 1316 1327 3
E 1317 1321 1
E 1317 1339 5
E 1318 1325 2
E 1318 1355 10
E 1319 1343 5
E 1319 1347 6
E 1320 1330 3
E 1321 1338 4
E 1321 1345 5
E 1322 1325 1
E 1322 1333 3
E 1323 1336 3
E 1324 1327 1
E 1324 1328 1
E 1325 1341 3
E 1326 1329 1
E 1327 1330 1
E 1327 1331 1
E 1328 1331 1
E 1328 1349 5
E 1329 1334 1
E 1330 1337 1
E 1330 1366 8
E 1331 1337 1
E 1331 1350 5
E 1332 1339 1
E 1332 1340 1
E 1333 1341 1
E 1333 1354 6
E 1334 1342 1
E 1334 1343 1
E 1335 1358 6
E 1335 1365 7
E 1336 1358 6
E 1336 1366 7
E 1337 1352 5
E 1337 1372 8
E 1338 1344 1
E 1338 1353 5
E 1339 1345 1
E 1339 1360 6
E 1340 1354 5
E 1341 1361 6
E 1342 1346 1
E 1343 1346 1
E 1343 1364 6
E 1344 1349 2
E 1344 1359 5
E 1345 1353 4
E 1345 1368 6
E 1346 1348 1
E 1346 1371 6
E 1347 1364 5
E 1347 1365 5
E 1348 1393 17
E 1349 1350 1
E 1349 1373 5
E 1350 1352 1
E 1350 1374 5
E 1351 1355 1
E 1351 1356 1
E 1352 1375 5
E 1353 1359 1
E 1353 1379 7
E 1354 1360 1
E 1354 1361 1
E 1355 1362 1
E 1356 1362 1
E 1356 1363 1
E 1357 1363 1
E 1358 1381 7
E 1358 1382 7
E 1359 1367 1
E 1359 1378 6
E 1360 1368 1
E 1362 1369 1
E 1363 1369 1
E 1363 1370 1
E 1364 1371 1
E 1364 1377 5
E 1365 1377 5
E 1365 1381 6
E 1366 1372 1
E 1366 1382 6
E 1367 1373 1
E 1367 1386 7
E 1368 1378 5
E 1371 1380 5
E 1372 1384 6
E 1372 1389 10
E 1373 1374 1
E 1373 1385 6
E 1374 1375 1
E 1375 1389 8
E 1376 1379 1
E 1376 1397 12
E 1377 1380 1
E 1377 1388 6
E 1378 1383 1
E 1378 1385 2
E 1379 1383 1
E 1379 1399 12
E 1380 1390 6
E 1381 1388 5
E 1381 1395 8
E 1382 1384 1
E 1383 1386 1
E 1383 1400 12
E 1384 1395 7
E 1384 1398 10
E 1385 1387 1
E 1386 1387 1
E 1386 1403 12
E 1387 1406 12
E 1388 1390 1
E 1389 1398 6
E 1390 1393 1
E 1390 1401 7
E 1391 1394 1
E 1392 1394 1
E 1393 1405 7
E 1394 1396 1
E 1395 1402 5
E 1395 1408 10
E 1396 1404 5
E 1397 1399 1
E 1397 1404 3
E 1398 1408 7
E 1399 1400 1
E 1400 1403 1
E 1401 1405 1
E 1403 1406 1
E 1406 1407 3
E 1409 1410 1
E 1410 1411 1
E 1 1412 100000
E 2 1412 100000
E 3 1412 100000
E 4 1412 100000
E 5 1412 100000
E 6 1413 100000
E 7 1413 100000
E 8 1413 100000
E 9 1413 100000
E 10 1413 100000
E 11 1414 100000
E 12 1414 100000
E 13 1415 100000
E 14 1415 100000
E 15 1415 100000
E 16 1415 100000
E 17 1415 100000
E 18 1416 100000
E 19 1416 100000
E 20 1416 100000
E 21 1416 100000
E 22 1417 100000
E 23 1417 100000
E 24 1417 100000
E 25 1417 100000
E 26 1418 100000
E 27 1418 100000
E 28 1418 100000
E 29 1418 100000
E 30 1419 100000
E 31 1419 100000
E 32 1420 100000
E 33 1420 100000
E 34 1421 100000
E 35 1421 100000
E 36 1422 100000
E 37 1422 100000
E 38 1423 100000
E 39 1423 100000
E 40 1424 100000
E 41 1424 100000
E 42 1424 100000
E 43 1424 100000
E 44 1424 100000
E 45 1424 100000
E 46 1425 100000
E 47 1425 100000
E 48 1425 100000
E 49 1426 100000
E 50 1426 100000
E 51 1427 100000
E 52 1427 100000
E 53 1428 100000
E 54 1428 100000
E 55 1429 100000
E 56 1429 100000
E 57 1430 100000
E 58 1430 100000
E 59 1431 100000
E 60 1431 100000
E 61 1432 100000
E 62 1432 100000
E 63 1433 100000
E 64 1433 100000
E 65 1434 100000
E 66 1434 100000
E 67 1435 100000
E 68 1435 100000
E 69 1436 100000
E 70 1436 100000
E 71 1437 100000
E 72 1437 100000
E 73 1437 100000
E 74 1437 100000
E 75 1438 100000
E 76 1438 100000
E 77 1439 100000
E 78 1439 100000
E 79 1439 100000
E 80 1440 100000
E 81 1440 100000
E 82 1440 100000
E 83 1441 100000
E 84 1441 100000
E 85 1441 100000
E 86 1442 100000
E 87 1442 100000
E 88 1442 100000
E 89 1443 100000
E 90 1443 100000
E 91 1443 100000
E 92 1444 100000
E 93 1444 100000
E 94 1444 100000
E 95 1445 100000
E 96 1445 100000
E 97 1445 100000
E 98 1446 100000
E 99 1446 100000
E 100 1446 100000
E 101 1447 100000
E 102 1448 100000
E 103 1449 100000
E 104 1450 100000
E 105 1451 100000
E 106 1451 100000
E 107 1451 100000
E 108 1452 100000
E 109 1452 100000
E 110 1452 100000
E 111 1453 100000
E 112 1453 100000
E 113 1453 100000
E 114 1454 100000
E 115 1454 100000
E 116 1454 100000
E 117 1455 100000
E 118 1455 100000
E 119 1455 100000
E 120 1456 100000
E 121 1456 100000
E 122 1456 100000
E 123 1456 100000
E 124 1457 100000
E 125 1457 100000
E 126 1458 100000
E 127 1458 100000
E 128 1459 100000
E 129 1459 100000
E 130 1460 100000
E 131 1460 100000
E 132 1461 100000
E 133 1461 100000
E 134 1462 100000
E 135 1462 100000
E 136 1463 100000
E 137 1463 100000
E 138 1464 100000
E 139 1464 100000
E 140 1465 100000
E 141 1465 100000
E 142 1466 100000
E 143 1466 100000
E 144 1467 100000
E 145 1467 100000
E 146 1468 100000
E 147 1468 100000
E 148 1469 100000
E 149 1469 100000
E 150 1470 100000
E 151 1470 100000
E 152 1471 100000
E 153 1471 100000
E 154 1472 100000
E 155 1472 100000
E 156 1472 100000
E 157 1472 100000
E 158 1473 100000
E 159 1473 100000
E 160 1473 100000
E 161 1473 100000
E 162 1474 100000
E 163 1474 100000
E 164 1475 100000
E 165 1475 100000
E 166 1475 100000
E 167 1475 100000
E 168 1476 100000
E 169 1476 100000
E 170 1477 100000
E 171 1477 100000
E 172 1478 100000
E 173 1478 100000
E 174 1479 100000
E 175 1479 100000
E 176 1480 100000
E 177 1480 100000
E 178 1481 100000
E 179 1481 100000
E 180 1482 100000
E 181 1482 100000
E 182 1483 100000
E 183 1483 100000
E 184 1483 100000
E 185 1483 100000
E 186 1483 100000
E 187 1484 100000
E 188 1484 100000
E 189 1484 100000
E 190 1484 100000
E 191 1484 100000
E 192 1485 100000
E 193 1485 100000
E 194 1486 100000
E 195 1486 100000
E 196 1486 100000
E 197 1486 100000
E 198 1486 100000
E 199 1487 100000
E 200 1487 100000
E 201 1487 100000
E 202 1487 100000
E 203 1487 100000
E 204 1487 100000
E 205 1488 100000
E 206 1488 100000
E 207 1488 100000
E 208 1488 100000
E 209 1488 100000
E 210 1489 100000
E 211 1489 100000
E 212 1490 100000
E 213 1490 100000
E 214 1490 100000
E 215 1491 100000
E 216 1412 100000
E 217 1415 100000
E 218 1424 100000
E 219 1483 100000
E 220 1484 100000
E 221 1486 100000
E 222 1486 100000
E 223 1486 100000
E 224 1486 100000
END

SECTION Terminals
Terminals 80
T 1412
T 1413
T 1414
T 1415
T 1416
T 1417
T 1418
T 1419
T 1420
T 1421
T 1422
T 1423
T 1424
T 1425
T 1426
T 1427
T 1428
T 1429
T 1430
T 1431
T 1432
T 1433
T 1434
T 1435
T 1436
T 1437
T 1438
T 1439
T 1440
T 1441
T 1442
T 1443
T 1444
T 1445
T 1446
T 1447
T 1448
T 1449
T 1450
T 1451
T 1452
T 1453
T 1454
T 1455
T 1456
T 1457
T 1458
T 1459
T 1460
T 1461
T 1462
T 1463
T 1464
T 1465
T 1466
T 1467
T 1468
T 1469
T 1470
T 1471
T 1472
T 1473
T 1474
T 1475
T 1476
T 1477
T 1478
T 1479
T 1480
T 1481
T 1482
T 1483
T 1484
T 1485
T 1486
T 1487
T 1488
T 1489
T 1490
T 1491
END

EOF
